p cnf 708 510
DNF 67 -109 -110 -111 0 -17 -65 67 0 -18 -66 67 0 -20 67 -68 0 -17 -18 -20 67 -111 0 -649 -651 -397 -17 19 -541 -543 -685 -686 -65 -218 -362 -363 -505 -254 -255 0 -649 -651 -397 -18 19 -541 -543 -685 -686 -66 -218 -362 -363 -505 -254 -255 0 -649 -651 -397 19 -541 -543 -685 -686 -67 -218 -362 -363 -505 -254 -255 0 -18 -65 67 -68 -109 0 -20 -65 -66 67 -109 0 -20 -66 67 -109 -110 0 -17 -20 -66 67 -110 0 -18 67 -68 -109 -110 0 -17 -18 67 -68 -110 0 -65 -66 67 -109 -111 0 -17 67 -110 -111 0 -65 67 -68 -109 -111 0 -18 -20 67 -110 -111 0 0
DNF 57 -103 -104 -105 0 57 -59 -60 -103 -105 0 57 -58 -59 -103 -105 0 -10 57 -58 0 -11 57 -59 0 -12 57 -60 0 -10 -11 -12 57 -105 0 -643 -645 9 -535 -537 -679 -680 -428 -57 -572 -573 -464 -465 -607 -499 0 -10 57 -59 -60 -103 0 -12 57 -58 -59 -103 0 -11 57 -104 -105 0 -10 -11 57 -60 -104 0 -10 57 -60 -103 -104 0 -10 -12 57 -104 -105 0 -12 57 -58 -103 -104 0 -11 -12 57 -58 -104 0 0
DNF 49 -97 -98 -99 0 49 -51 -52 -97 -99 0 49 -50 -51 -97 -99 0 -2 49 -50 0 -3 49 -51 0 -4 49 -52 0 -2 -3 -4 49 -99 0 1 -529 -531 -673 -674 -422 -49 -566 -567 -458 -459 -601 -493 -637 -639 0 -2 49 -51 -52 -97 0 -4 49 -50 -51 -97 0 -3 49 -98 -99 0 -2 -3 49 -52 -98 0 -2 49 -52 -97 -98 0 -2 -4 49 -98 -99 0 -4 49 -50 -97 -98 0 -3 -4 49 -50 -98 0 0
DNF 75 -115 -116 -117 0 -25 -73 75 0 -26 -74 75 0 -28 75 -76 0 -25 -26 -28 75 -117 0 -260 -261 -655 -657 -403 -25 27 -547 -549 -691 -692 -73 -224 -368 -369 -511 0 -260 -261 -655 -657 -403 -26 27 -547 -549 -691 -692 -74 -224 -368 -369 -511 0 -260 -261 -655 -657 -403 27 -547 -549 -691 -692 -75 -224 -368 -369 -511 0 -26 -73 75 -76 -115 0 -28 -73 -74 75 -115 0 -28 -74 75 -115 -116 0 -25 -28 -74 75 -116 0 -26 75 -76 -115 -116 0 -25 -26 75 -76 -116 0 -73 -74 75 -115 -117 0 -25 75 -116 -117 0 -73 75 -76 -115 -117 0 -26 -28 75 -116 -117 0 0
DNF 61 -106 -107 -108 0 61 -64 -63 -106 -108 0 61 -62 -63 -106 -108 0 -14 61 -62 0 -15 61 -63 0 -16 61 -64 0 -14 -15 -16 61 -108 0 -646 -648 13 -538 -540 -682 -683 -431 -61 -575 -576 -467 -468 -610 -502 0 -14 61 -64 -63 -106 0 -16 61 -62 -63 -106 0 -15 61 -107 -108 0 -14 -15 61 -64 -107 0 -14 61 -64 -106 -107 0 -14 -16 61 -107 -108 0 -16 61 -62 -106 -107 0 -15 -16 61 -62 -107 0 0
DNF 77 -118 -119 -120 0 77 -79 -80 -118 -120 0 77 -78 -79 -118 -120 0 -30 77 -78 0 -31 77 -79 0 -32 77 -80 0 -30 -31 -32 77 -120 0 -514 -658 -660 29 -550 -552 -694 -695 -443 -587 -588 -77 -479 -480 -622 0 -30 77 -79 -80 -118 0 -32 77 -78 -79 -118 0 -31 77 -119 -120 0 -30 -31 77 -80 -119 0 -30 77 -80 -118 -119 0 -30 -32 77 -119 -120 0 -32 77 -78 -118 -119 0 -31 -32 77 -78 -119 0 0
DNF 63 -106 -107 -108 0 -13 -61 63 0 -14 -62 63 0 -16 63 -64 0 -13 -14 -16 63 -108 0 -646 -648 -394 -13 15 -538 -540 -682 -683 -61 -215 -359 -360 -502 -251 -252 0 -646 -648 -394 -14 15 -538 -540 -682 -683 -62 -215 -359 -360 -502 -251 -252 0 -646 -648 -394 15 -538 -540 -682 -683 -63 -215 -359 -360 -502 -251 -252 0 -14 -61 63 -64 -106 0 -16 -61 -62 63 -106 0 -16 -62 63 -106 -107 0 -13 -16 -62 63 -107 0 -14 63 -64 -106 -107 0 -13 -14 63 -64 -107 0 -61 -62 63 -106 -108 0 -13 63 -107 -108 0 -61 63 -64 -106 -108 0 -14 -16 63 -107 -108 0 0
DNF 79 -118 -119 -120 0 -29 -77 79 0 -30 -78 79 0 -32 79 -80 0 -29 -30 -32 79 -120 0 -514 -263 -264 -658 -660 -406 -29 31 -550 -552 -694 -695 -77 -227 -371 -372 0 -514 -263 -264 -658 -660 -406 -30 31 -550 -552 -694 -695 -78 -227 -371 -372 0 -514 -263 -264 -658 -660 -406 31 -550 -552 -694 -695 -79 -227 -371 -372 0 -30 -77 79 -80 -118 0 -32 -77 -78 79 -118 0 -32 -78 79 -118 -119 0 -29 -32 -78 79 -119 0 -30 79 -80 -118 -119 0 -29 -30 79 -80 -119 0 -77 -78 79 -118 -120 0 -29 79 -119 -120 0 -77 79 -80 -118 -120 0 -30 -32 79 -119 -120 0 0
DNF 59 -103 -104 -105 0 -9 -57 59 0 -10 -58 59 0 -12 59 -60 0 -9 -10 -12 59 -105 0 -643 -645 -391 -9 11 -535 -537 -679 -680 -57 -212 -356 -357 -499 -248 -249 0 -643 -645 -391 -10 11 -535 -537 -679 -680 -58 -212 -356 -357 -499 -248 -249 0 -643 -645 -391 11 -535 -537 -679 -680 -59 -212 -356 -357 -499 -248 -249 0 -10 -57 59 -60 -103 0 -12 -57 -58 59 -103 0 -12 -58 59 -103 -104 0 -9 -12 -58 59 -104 0 -10 59 -60 -103 -104 0 -9 -10 59 -60 -104 0 -57 -58 59 -103 -105 0 -9 59 -104 -105 0 -57 59 -60 -103 -105 0 -10 -12 59 -104 -105 0 0
DNF 81 -121 -122 -123 0 81 -83 -84 -121 -123 0 81 -82 -83 -121 -123 0 -34 81 -82 0 -35 81 -83 0 -36 81 -84 0 -34 -35 -36 81 -123 0 -517 -661 -663 33 -553 -555 -697 -698 -446 -590 -591 -81 -482 -483 -625 0 -34 81 -83 -84 -121 0 -36 81 -82 -83 -121 0 -35 81 -122 -123 0 -34 -35 81 -84 -122 0 -34 81 -84 -121 -122 0 -34 -36 81 -122 -123 0 -36 81 -82 -121 -122 0 -35 -36 81 -82 -122 0 0
DNF 65 -109 -110 -111 0 65 -67 -68 -109 -111 0 65 -66 -67 -109 -111 0 -18 65 -66 0 -19 65 -67 0 -20 65 -68 0 -18 -19 -20 65 -111 0 -649 -651 17 -541 -543 -685 -686 -434 -65 -578 -579 -470 -471 -613 -505 0 -18 65 -67 -68 -109 0 -20 65 -66 -67 -109 0 -19 65 -110 -111 0 -18 -19 65 -68 -110 0 -18 65 -68 -109 -110 0 -18 -20 65 -110 -111 0 -20 65 -66 -109 -110 0 -19 -20 65 -66 -110 0 0
DNF 83 -121 -122 -123 0 -33 -81 83 0 -34 -82 83 0 -36 83 -84 0 -33 -34 -36 83 -123 0 -517 -266 -267 -661 -663 -409 -33 35 -553 -555 -697 -698 -81 -230 -374 -375 0 -517 -266 -267 -661 -663 -409 -34 35 -553 -555 -697 -698 -82 -230 -374 -375 0 -517 -266 -267 -661 -663 -409 35 -553 -555 -697 -698 -83 -230 -374 -375 0 -34 -81 83 -84 -121 0 -36 -81 -82 83 -121 0 -36 -82 83 -121 -122 0 -33 -36 -82 83 -122 0 -34 83 -84 -121 -122 0 -33 -34 83 -84 -122 0 -81 -82 83 -121 -123 0 -33 83 -122 -123 0 -81 83 -84 -121 -123 0 -34 -36 83 -122 -123 0 0
DNF 85 -124 -125 -126 0 85 -87 -88 -124 -126 0 85 -86 -87 -124 -126 0 -38 85 -86 0 -39 85 -87 0 -40 85 -88 0 -38 -39 -40 85 -126 0 -520 -664 -666 37 -556 -558 -700 -701 -449 -593 -594 -85 -485 -486 -628 0 -38 85 -87 -88 -124 0 -40 85 -86 -87 -124 0 -39 85 -125 -126 0 -38 -39 85 -88 -125 0 -38 85 -88 -124 -125 0 -38 -40 85 -125 -126 0 -40 85 -86 -124 -125 0 -39 -40 85 -86 -125 0 0
DNF 71 -112 -113 -114 0 -21 -69 71 0 -22 -70 71 0 -24 71 -72 0 -21 -22 -24 71 -114 0 -257 -258 -652 -654 -400 -21 23 -544 -546 -688 -689 -69 -221 -365 -366 -508 0 -257 -258 -652 -654 -400 -22 23 -544 -546 -688 -689 -70 -221 -365 -366 -508 0 -257 -258 -652 -654 -400 23 -544 -546 -688 -689 -71 -221 -365 -366 -508 0 -22 -69 71 -72 -112 0 -24 -69 -70 71 -112 0 -24 -70 71 -112 -113 0 -21 -24 -70 71 -113 0 -22 71 -72 -112 -113 0 -21 -22 71 -72 -113 0 -69 -70 71 -112 -114 0 -21 71 -113 -114 0 -69 71 -72 -112 -114 0 -22 -24 71 -113 -114 0 0
DNF 69 -112 -113 -114 0 69 -71 -72 -112 -114 0 69 -70 -71 -112 -114 0 -22 69 -70 0 -23 69 -71 0 -24 69 -72 0 -22 -23 -24 69 -114 0 -652 -654 21 -544 -546 -688 -689 -437 -69 -581 -582 -473 -474 -616 -508 0 -22 69 -71 -72 -112 0 -24 69 -70 -71 -112 0 -23 69 -113 -114 0 -22 -23 69 -72 -113 0 -22 69 -72 -112 -113 0 -22 -24 69 -113 -114 0 -24 69 -70 -112 -113 0 -23 -24 69 -70 -113 0 0
DNF 87 -124 -125 -126 0 -37 -85 87 0 -38 -86 87 0 -40 87 -88 0 -37 -38 -40 87 -126 0 -520 -269 -270 -664 -666 -412 -37 39 -556 -558 -700 -701 -85 -233 -377 -378 0 -520 -269 -270 -664 -666 -412 -38 39 -556 -558 -700 -701 -86 -233 -377 -378 0 -520 -269 -270 -664 -666 -412 39 -556 -558 -700 -701 -87 -233 -377 -378 0 -38 -85 87 -88 -124 0 -40 -85 -86 87 -124 0 -40 -86 87 -124 -125 0 -37 -40 -86 87 -125 0 -38 87 -88 -124 -125 0 -37 -38 87 -88 -125 0 -85 -86 87 -124 -126 0 -37 87 -125 -126 0 -85 87 -88 -124 -126 0 -38 -40 87 -125 -126 0 0
DNF 55 -100 -101 -102 0 -5 -53 55 0 -6 -54 55 0 -8 55 -56 0 -5 -6 -8 55 -102 0 -640 -642 -388 -5 7 -532 -534 -676 -677 -53 -209 -353 -354 -496 -245 -246 0 -640 -642 -388 -6 7 -532 -534 -676 -677 -54 -209 -353 -354 -496 -245 -246 0 -640 -642 -388 7 -532 -534 -676 -677 -55 -209 -353 -354 -496 -245 -246 0 -6 -53 55 -56 -100 0 -8 -53 -54 55 -100 0 -8 -54 55 -100 -101 0 -5 -8 -54 55 -101 0 -6 55 -56 -100 -101 0 -5 -6 55 -56 -101 0 -53 -54 55 -100 -102 0 -5 55 -101 -102 0 -53 55 -56 -100 -102 0 -6 -8 55 -101 -102 0 0
DNF -128 -129 89 -127 0 -129 89 -91 -92 -127 0 -129 89 -90 -91 -127 0 -42 89 -90 0 -43 89 -91 0 -44 89 -92 0 -129 -42 -43 -44 89 0 -523 -667 -669 41 -559 -561 -703 -704 -452 -596 -597 -89 -488 -489 -631 0 -42 89 -91 -92 -127 0 -44 89 -90 -91 -127 0 -128 -129 -43 89 0 -128 -42 -43 89 -92 0 -128 -42 89 -92 -127 0 -128 -129 -42 -44 89 0 -128 -44 89 -90 -127 0 -128 -43 -44 89 -90 0 0
DNF 53 -100 -101 -102 0 53 -55 -56 -100 -102 0 53 -54 -55 -100 -102 0 -6 53 -54 0 -7 53 -55 0 -8 53 -56 0 -6 -7 -8 53 -102 0 -640 -642 5 -532 -534 -676 -677 -425 -53 -569 -570 -461 -462 -604 -496 0 -6 53 -55 -56 -100 0 -8 53 -54 -55 -100 0 -7 53 -101 -102 0 -6 -7 53 -56 -101 0 -6 53 -56 -100 -101 0 -6 -8 53 -101 -102 0 -8 53 -54 -100 -101 0 -7 -8 53 -54 -101 0 0
DNF -128 -129 91 -127 0 -41 -89 91 0 -42 -90 91 0 -44 91 -92 0 -129 -41 -42 -44 91 0 -523 -272 -273 -667 -669 -415 -41 43 -559 -561 -703 -704 -89 -236 -380 -381 0 -523 -272 -273 -667 -669 -415 -42 43 -559 -561 -703 -704 -90 -236 -380 -381 0 -523 -272 -273 -667 -669 -415 43 -559 -561 -703 -704 -91 -236 -380 -381 0 -42 -89 91 -92 -127 0 -44 -89 -90 91 -127 0 -128 -44 -90 91 -127 0 -128 -41 -44 -90 91 0 -128 -42 91 -92 -127 0 -128 -41 -42 91 -92 0 -129 -89 -90 91 -127 0 -128 -129 -41 91 0 -129 -89 91 -92 -127 0 -128 -129 -42 -44 91 0 0
DNF -130 -131 -132 93 0 -130 -132 93 -95 -96 0 -130 -132 93 -94 -95 0 -46 93 -94 0 -47 93 -95 0 -48 93 -96 0 -132 -46 -47 -48 93 0 -526 -670 -672 45 -562 -564 -706 -707 -455 -599 -600 -93 -491 -492 -634 0 -130 -46 93 -95 -96 0 -130 -48 93 -94 -95 0 -131 -132 -47 93 0 -131 -46 -47 93 -96 0 -130 -131 -46 93 -96 0 -131 -132 -46 -48 93 0 -130 -131 -48 93 -94 0 -131 -47 -48 93 -94 0 0
DNF -130 -131 -132 95 0 -45 -93 95 0 -46 -94 95 0 -48 95 -96 0 -132 -45 -46 -48 95 0 -384 -526 -275 -276 -670 -672 -418 -45 47 -562 -564 -706 -707 -93 -239 -383 0 -384 -526 -275 -276 -670 -672 -418 -46 47 -562 -564 -706 -707 -94 -239 -383 0 -384 -526 -275 -276 -670 -672 -418 47 -562 -564 -706 -707 -95 -239 -383 0 -130 -46 -93 95 -96 0 -130 -48 -93 -94 95 0 -130 -131 -48 -94 95 0 -131 -45 -48 -94 95 0 -130 -131 -46 95 -96 0 -131 -45 -46 95 -96 0 -130 -132 -93 -94 95 0 -131 -132 -45 95 0 -130 -132 -93 95 -96 0 -131 -132 -46 -48 95 0 0
DNF 51 -97 -98 -99 0 -1 -49 51 0 -2 -50 51 0 -4 51 -52 0 -1 -2 -4 51 -99 0 -1 3 -385 -529 -531 -673 -674 -49 -206 -350 -351 -493 -242 -243 -637 -639 0 -2 3 -385 -529 -531 -673 -674 -50 -206 -350 -351 -493 -242 -243 -637 -639 0 3 -385 -529 -531 -673 -674 -51 -206 -350 -351 -493 -242 -243 -637 -639 0 -2 -49 51 -52 -97 0 -4 -49 -50 51 -97 0 -4 -50 51 -97 -98 0 -1 -4 -50 51 -98 0 -2 51 -52 -97 -98 0 -1 -2 51 -52 -98 0 -49 -50 51 -97 -99 0 -1 51 -98 -99 0 -49 51 -52 -97 -99 0 -2 -4 51 -98 -99 0 0
DNF 73 -115 -116 -117 0 73 -75 -76 -115 -117 0 73 -74 -75 -115 -117 0 -26 73 -74 0 -27 73 -75 0 -28 73 -76 0 -26 -27 -28 73 -117 0 -655 -657 25 -547 -549 -691 -692 -440 -584 -73 -585 -476 -477 -619 -511 0 -26 73 -75 -76 -115 0 -28 73 -74 -75 -115 0 -27 73 -116 -117 0 -26 -27 73 -76 -116 0 -26 73 -76 -115 -116 0 -26 -28 73 -116 -117 0 -28 73 -74 -115 -116 0 -27 -28 73 -74 -116 0 0
DNF 64 -106 -107 -108 0 -13 -61 64 0 -14 -62 64 0 -15 -63 64 0 -13 -14 -15 64 -108 0 -394 -13 16 -538 -540 -682 -683 -180 -61 -323 -467 -468 -610 -251 -252 0 -394 -14 16 -538 -540 -682 -683 -180 -62 -323 -467 -468 -610 -251 -252 0 -394 -15 16 -538 -540 -682 -683 -180 -63 -323 -467 -468 -610 -251 -252 0 -394 16 -538 -540 -682 -683 -180 -64 -323 -467 -468 -610 -251 -252 0 -13 -62 -63 64 -106 0 -15 -61 -62 64 -106 0 -62 64 -106 -107 0 -14 -61 -63 64 -106 -108 0 -13 -14 64 -107 -108 0 -13 -15 64 -107 -108 0 -14 -15 64 -107 -108 0 -13 -15 -62 64 -107 0 0
DNF -130 -131 -132 94 0 -130 -131 94 -96 0 -45 -93 94 0 -47 94 -95 0 -48 94 -96 0 -132 -45 -47 -48 94 0 -384 -670 -672 -418 -45 46 -312 -706 -707 -599 -600 -347 -93 -634 -383 0 -384 -670 -672 -418 46 -312 -706 -707 -599 -600 -347 -94 -634 -383 0 -130 -47 -93 94 -96 0 -130 -45 94 -95 -96 0 -130 -132 -48 -93 94 -95 0 -131 -132 -45 -47 94 0 -131 -45 -47 94 -96 0 -131 -132 -45 -48 94 0 -131 -132 -47 -48 94 0 0
DNF 62 -106 -107 -108 0 62 -64 -106 -107 0 -13 -61 62 0 -15 62 -63 0 -16 62 -64 0 -13 -15 -16 62 -108 0 -646 -648 -394 -13 14 -288 -682 -683 -61 -575 -576 -323 -610 -359 -360 0 -646 -648 -394 14 -288 -682 -683 -62 -575 -576 -323 -610 -359 -360 0 -15 -61 62 -64 -106 0 -13 62 -64 -63 -106 0 -16 -61 62 -63 -106 -108 0 -13 -15 62 -107 -108 0 -13 -15 62 -64 -107 0 -13 -16 62 -107 -108 0 -15 -16 62 -107 -108 0 0
DNF 60 -103 -104 -105 0 -9 -57 60 0 -10 -58 60 0 -11 -59 60 0 -9 -10 -11 60 -105 0 -391 -9 12 -535 -537 -679 -680 -177 -57 -320 -464 -465 -607 -248 -249 0 -391 -10 12 -535 -537 -679 -680 -177 -58 -320 -464 -465 -607 -248 -249 0 -391 -11 12 -535 -537 -679 -680 -177 -59 -320 -464 -465 -607 -248 -249 0 -391 12 -535 -537 -679 -680 -177 -60 -320 -464 -465 -607 -248 -249 0 -9 -58 -59 60 -103 0 -11 -57 -58 60 -103 0 -58 60 -103 -104 0 -10 -57 -59 60 -103 -105 0 -9 -10 60 -104 -105 0 -9 -11 60 -104 -105 0 -10 -11 60 -104 -105 0 -9 -11 -58 60 -104 0 0
DNF 56 -100 -101 -102 0 -5 -53 56 0 -6 -54 56 0 -7 -55 56 0 -5 -6 -7 56 -102 0 -388 -5 8 -532 -534 -676 -677 -174 -53 -317 -461 -462 -604 -245 -246 0 -388 -6 8 -532 -534 -676 -677 -174 -54 -317 -461 -462 -604 -245 -246 0 -388 -7 8 -532 -534 -676 -677 -174 -55 -317 -461 -462 -604 -245 -246 0 -388 8 -532 -534 -676 -677 -174 -56 -317 -461 -462 -604 -245 -246 0 -5 -54 -55 56 -100 0 -7 -53 -54 56 -100 0 -54 56 -100 -101 0 -6 -53 -55 56 -100 -102 0 -5 -6 56 -101 -102 0 -5 -7 56 -101 -102 0 -6 -7 56 -101 -102 0 -5 -7 -54 56 -101 0 0
DNF 52 -97 -98 -99 0 -1 -49 52 0 -2 -50 52 0 -3 -51 52 0 -1 -2 -3 52 -99 0 -1 4 -385 -529 -531 -673 -674 -171 -49 -314 -458 -459 -601 -242 -243 0 -2 4 -385 -529 -531 -673 -674 -171 -50 -314 -458 -459 -601 -242 -243 0 -3 4 -385 -529 -531 -673 -674 -171 -51 -314 -458 -459 -601 -242 -243 0 4 -385 -529 -531 -673 -674 -171 -52 -314 -458 -459 -601 -242 -243 0 -1 -50 -51 52 -97 0 -3 -49 -50 52 -97 0 -50 52 -97 -98 0 -2 -49 -51 52 -97 -99 0 -1 -2 52 -98 -99 0 -1 -3 52 -98 -99 0 -2 -3 52 -98 -99 0 -1 -3 -50 52 -98 0 0
DNF 58 -103 -104 -105 0 58 -60 -103 -104 0 -9 -57 58 0 -11 58 -59 0 -12 58 -60 0 -9 -11 -12 58 -105 0 -643 -645 -391 -9 10 -285 -679 -680 -57 -572 -573 -320 -607 -356 -357 0 -643 -645 -391 10 -285 -679 -680 -58 -572 -573 -320 -607 -356 -357 0 -11 -57 58 -60 -103 0 -9 58 -59 -60 -103 0 -12 -57 58 -59 -103 -105 0 -9 -11 58 -104 -105 0 -9 -11 58 -60 -104 0 -9 -12 58 -104 -105 0 -11 -12 58 -104 -105 0 0
DNF 74 -115 -116 -117 0 74 -76 -115 -116 0 -25 -73 74 0 -27 74 -75 0 -28 74 -76 0 -25 -27 -28 74 -117 0 -655 -657 -403 -25 26 -297 -691 -692 -584 -73 -332 -585 -619 -368 -369 0 -655 -657 -403 26 -297 -691 -692 -584 -74 -332 -585 -619 -368 -369 0 -27 -73 74 -76 -115 0 -25 74 -75 -76 -115 0 -28 -73 74 -75 -115 -117 0 -25 -27 74 -116 -117 0 -25 -27 74 -76 -116 0 -25 -28 74 -116 -117 0 -27 -28 74 -116 -117 0 0
DNF 66 -109 -110 -111 0 66 -68 -109 -110 0 -17 -65 66 0 -19 66 -67 0 -20 66 -68 0 -17 -19 -20 66 -111 0 -649 -651 -397 -17 18 -291 -685 -686 -65 -578 -326 -579 -613 -362 -363 0 -649 -651 -397 18 -291 -685 -686 -66 -578 -326 -579 -613 -362 -363 0 -19 -65 66 -68 -109 0 -17 66 -67 -68 -109 0 -20 -65 66 -67 -109 -111 0 -17 -19 66 -110 -111 0 -17 -19 66 -68 -110 0 -17 -20 66 -110 -111 0 -19 -20 66 -110 -111 0 0
DNF 68 -109 -110 -111 0 -17 -65 68 0 -18 -66 68 0 -19 -67 68 0 -17 -18 -19 68 -111 0 -397 -17 20 -541 -543 -685 -686 -183 -65 -326 -470 -471 -613 -254 -255 0 -397 -18 20 -541 -543 -685 -686 -183 -66 -326 -470 -471 -613 -254 -255 0 -397 -19 20 -541 -543 -685 -686 -183 -67 -326 -470 -471 -613 -254 -255 0 -397 20 -541 -543 -685 -686 -183 -68 -326 -470 -471 -613 -254 -255 0 -17 -66 -67 68 -109 0 -19 -65 -66 68 -109 0 -66 68 -109 -110 0 -18 -65 -67 68 -109 -111 0 -17 -18 68 -110 -111 0 -17 -19 68 -110 -111 0 -18 -19 68 -110 -111 0 -17 -19 -66 68 -110 0 0
DNF 70 -112 -113 -114 0 70 -72 -112 -113 0 -21 -69 70 0 -23 70 -71 0 -24 70 -72 0 -21 -23 -24 70 -114 0 -652 -654 -400 -21 22 -294 -688 -689 -69 -329 -581 -582 -616 -365 -366 0 -652 -654 -400 22 -294 -688 -689 -70 -329 -581 -582 -616 -365 -366 0 -23 -69 70 -72 -112 0 -21 70 -71 -72 -112 0 -24 -69 70 -71 -112 -114 0 -21 -23 70 -113 -114 0 -21 -23 70 -72 -113 0 -21 -24 70 -113 -114 0 -23 -24 70 -113 -114 0 0
DNF 72 -112 -113 -114 0 -21 -69 72 0 -22 -70 72 0 -23 -71 72 0 -21 -22 -23 72 -114 0 -257 -258 -400 -21 24 -544 -546 -688 -689 -186 -69 -329 -473 -474 -616 0 -257 -258 -400 -22 24 -544 -546 -688 -689 -186 -70 -329 -473 -474 -616 0 -257 -258 -400 -23 24 -544 -546 -688 -689 -186 -71 -329 -473 -474 -616 0 -257 -258 -400 24 -544 -546 -688 -689 -186 -72 -329 -473 -474 -616 0 -21 -70 -71 72 -112 0 -23 -69 -70 72 -112 0 -70 72 -112 -113 0 -22 -69 -71 72 -112 -114 0 -21 -22 72 -113 -114 0 -21 -23 72 -113 -114 0 -22 -23 72 -113 -114 0 -21 -23 -70 72 -113 0 0
DNF 76 -115 -116 -117 0 -25 -73 76 0 -26 -74 76 0 -27 -75 76 0 -25 -26 -27 76 -117 0 -260 -261 -403 -25 28 -547 -549 -691 -692 -189 -73 -332 -476 -477 -619 0 -260 -261 -403 -26 28 -547 -549 -691 -692 -189 -74 -332 -476 -477 -619 0 -260 -261 -403 -27 28 -547 -549 -691 -692 -189 -75 -332 -476 -477 -619 0 -260 -261 -403 28 -547 -549 -691 -692 -189 -76 -332 -476 -477 -619 0 -25 -74 -75 76 -115 0 -27 -73 -74 76 -115 0 -74 76 -115 -116 0 -26 -73 -75 76 -115 -117 0 -25 -26 76 -116 -117 0 -25 -27 76 -116 -117 0 -26 -27 76 -116 -117 0 -25 -27 -74 76 -116 0 0
DNF 78 -118 -119 -120 0 78 -80 -118 -119 0 -29 -77 78 0 -31 78 -79 0 -32 78 -80 0 -29 -31 -32 78 -120 0 -658 -660 -406 -29 30 -300 -694 -695 -587 -588 -77 -335 -622 -371 -372 0 -658 -660 -406 30 -300 -694 -695 -587 -588 -78 -335 -622 -371 -372 0 -31 -77 78 -80 -118 0 -29 78 -79 -80 -118 0 -32 -77 78 -79 -118 -120 0 -29 -31 78 -119 -120 0 -29 -31 78 -80 -119 0 -29 -32 78 -119 -120 0 -31 -32 78 -119 -120 0 0
DNF 80 -118 -119 -120 0 -29 -77 80 0 -30 -78 80 0 -31 -79 80 0 -29 -30 -31 80 -120 0 -263 -264 -406 -29 32 -550 -552 -694 -695 -192 -77 -335 -479 -480 -622 0 -263 -264 -406 -30 32 -550 -552 -694 -695 -192 -78 -335 -479 -480 -622 0 -263 -264 -406 -31 32 -550 -552 -694 -695 -192 -79 -335 -479 -480 -622 0 -263 -264 -406 32 -550 -552 -694 -695 -192 -80 -335 -479 -480 -622 0 -29 -78 -79 80 -118 0 -31 -77 -78 80 -118 0 -78 80 -118 -119 0 -30 -77 -79 80 -118 -120 0 -29 -30 80 -119 -120 0 -29 -31 80 -119 -120 0 -30 -31 80 -119 -120 0 -29 -31 -78 80 -119 0 0
DNF 82 -121 -122 -123 0 82 -84 -121 -122 0 -33 -81 82 0 -35 82 -83 0 -36 82 -84 0 -33 -35 -36 82 -123 0 -661 -663 -409 -33 34 -303 -697 -698 -590 -591 -81 -338 -625 -374 -375 0 -661 -663 -409 34 -303 -697 -698 -590 -591 -82 -338 -625 -374 -375 0 -35 -81 82 -84 -121 0 -33 82 -83 -84 -121 0 -36 -81 82 -83 -121 -123 0 -33 -35 82 -122 -123 0 -33 -35 82 -84 -122 0 -33 -36 82 -122 -123 0 -35 -36 82 -122 -123 0 0
DNF 84 -121 -122 -123 0 -33 -81 84 0 -34 -82 84 0 -35 -83 84 0 -33 -34 -35 84 -123 0 -266 -267 -409 -33 36 -553 -555 -697 -698 -195 -81 -338 -482 -483 -625 0 -266 -267 -409 -34 36 -553 -555 -697 -698 -195 -82 -338 -482 -483 -625 0 -266 -267 -409 -35 36 -553 -555 -697 -698 -195 -83 -338 -482 -483 -625 0 -266 -267 -409 36 -553 -555 -697 -698 -195 -84 -338 -482 -483 -625 0 -33 -82 -83 84 -121 0 -35 -81 -82 84 -121 0 -82 84 -121 -122 0 -34 -81 -83 84 -121 -123 0 -33 -34 84 -122 -123 0 -33 -35 84 -122 -123 0 -34 -35 84 -122 -123 0 -33 -35 -82 84 -122 0 0
DNF 86 -124 -125 -126 0 86 -88 -124 -125 0 -37 -85 86 0 -39 86 -87 0 -40 86 -88 0 -37 -39 -40 86 -126 0 -664 -666 -412 -37 38 -306 -700 -701 -593 -594 -85 -341 -628 -377 -378 0 -664 -666 -412 38 -306 -700 -701 -593 -594 -86 -341 -628 -377 -378 0 -39 -85 86 -88 -124 0 -37 86 -87 -88 -124 0 -40 -85 86 -87 -124 -126 0 -37 -39 86 -125 -126 0 -37 -39 86 -88 -125 0 -37 -40 86 -125 -126 0 -39 -40 86 -125 -126 0 0
DNF 88 -124 -125 -126 0 -37 -85 88 0 -38 -86 88 0 -39 -87 88 0 -37 -38 -39 88 -126 0 -269 -270 -412 -37 40 -556 -558 -700 -701 -198 -85 -341 -485 -486 -628 0 -269 -270 -412 -38 40 -556 -558 -700 -701 -198 -86 -341 -485 -486 -628 0 -269 -270 -412 -39 40 -556 -558 -700 -701 -198 -87 -341 -485 -486 -628 0 -269 -270 -412 40 -556 -558 -700 -701 -198 -88 -341 -485 -486 -628 0 -37 -86 -87 88 -124 0 -39 -85 -86 88 -124 0 -86 88 -124 -125 0 -38 -85 -87 88 -124 -126 0 -37 -38 88 -125 -126 0 -37 -39 88 -125 -126 0 -38 -39 88 -125 -126 0 -37 -39 -86 88 -125 0 0
DNF -128 -129 90 -127 0 -128 90 -92 -127 0 -41 -89 90 0 -43 90 -91 0 -44 90 -92 0 -129 -41 -43 -44 90 0 -667 -669 -415 -41 42 -309 -703 -704 -596 -597 -344 -89 -631 -380 -381 0 -667 -669 -415 42 -309 -703 -704 -596 -597 -344 -90 -631 -380 -381 0 -43 -89 90 -92 -127 0 -41 90 -91 -92 -127 0 -129 -44 -89 90 -91 -127 0 -128 -129 -41 -43 90 0 -128 -41 -43 90 -92 0 -128 -129 -41 -44 90 0 -128 -129 -43 -44 90 0 0
DNF -128 -129 92 -127 0 -41 -89 92 0 -42 -90 92 0 -43 -91 92 0 -129 -41 -42 -43 92 0 -272 -273 -415 -41 44 -559 -561 -703 -704 -201 -344 -89 -488 -489 -631 0 -272 -273 -415 -42 44 -559 -561 -703 -704 -201 -344 -90 -488 -489 -631 0 -272 -273 -415 -43 44 -559 -561 -703 -704 -201 -344 -91 -488 -489 -631 0 -272 -273 -415 44 -559 -561 -703 -704 -201 -344 -92 -488 -489 -631 0 -41 -90 -91 92 -127 0 -43 -89 -90 92 -127 0 -128 -90 92 -127 0 -129 -42 -89 -91 92 -127 0 -128 -129 -41 -42 92 0 -128 -129 -41 -43 92 0 -128 -129 -42 -43 92 0 -128 -41 -43 -90 92 0 0
DNF -130 -131 -132 96 0 -45 -93 96 0 -46 -94 96 0 -47 -95 96 0 -132 -45 -46 -47 96 0 -275 -276 -418 -45 48 -562 -564 -706 -707 -204 -347 -93 -491 -492 -634 0 -275 -276 -418 -46 48 -562 -564 -706 -707 -204 -347 -94 -491 -492 -634 0 -275 -276 -418 -47 48 -562 -564 -706 -707 -204 -347 -95 -491 -492 -634 0 -275 -276 -418 48 -562 -564 -706 -707 -204 -347 -96 -491 -492 -634 0 -130 -45 -94 -95 96 0 -130 -47 -93 -94 96 0 -130 -131 -94 96 0 -130 -132 -46 -93 -95 96 0 -131 -132 -45 -46 96 0 -131 -132 -45 -47 96 0 -131 -132 -46 -47 96 0 -131 -45 -47 -94 96 0 0
DNF 50 -97 -98 -99 0 50 -52 -97 -98 0 -1 -49 50 0 -3 50 -51 0 -4 50 -52 0 -1 -3 -4 50 -99 0 -1 2 -385 -279 -673 -674 -49 -566 -567 -314 -601 -350 -351 -637 -639 0 2 -385 -279 -673 -674 -50 -566 -567 -314 -601 -350 -351 -637 -639 0 -3 -49 50 -52 -97 0 -1 50 -51 -52 -97 0 -4 -49 50 -51 -97 -99 0 -1 -3 50 -98 -99 0 -1 -3 50 -52 -98 0 -1 -4 50 -98 -99 0 -3 -4 50 -98 -99 0 0
DNF 54 -100 -101 -102 0 54 -56 -100 -101 0 -5 -53 54 0 -7 54 -55 0 -8 54 -56 0 -5 -7 -8 54 -102 0 -640 -642 -388 -5 6 -282 -676 -677 -53 -569 -570 -317 -604 -353 -354 0 -640 -642 -388 6 -282 -676 -677 -54 -569 -570 -317 -604 -353 -354 0 -7 -53 54 -56 -100 0 -5 54 -55 -56 -100 0 -8 -53 54 -55 -100 -102 0 -5 -7 54 -101 -102 0 -5 -7 54 -56 -101 0 -5 -8 54 -101 -102 0 -7 -8 54 -101 -102 0 0
DNF 18 -109 -110 -111 0 -18 -541 -543 -434 -183 66 -470 -471 -218 -505 -254 -255 0 -17 18 -65 0 18 -19 -67 0 18 -20 -68 0 18 -19 -65 -109 -111 0 18 -19 -20 -65 -109 0 -17 18 -20 -67 -109 0 -17 18 -67 -109 -111 0 18 -20 -109 -110 0 -17 18 -19 -20 -110 0 -17 18 -19 -110 -111 0 0
DNF 34 -121 -122 -123 0 -517 -266 -267 -34 -553 -555 -446 -195 82 -482 -483 -230 0 -33 34 -81 0 34 -35 -83 0 34 -36 -84 0 34 -35 -81 -121 -123 0 34 -35 -36 -81 -121 0 -33 34 -36 -83 -121 0 -33 34 -83 -121 -123 0 34 -36 -121 -122 0 -33 34 -35 -36 -122 0 -33 34 -35 -122 -123 0 0
DNF 20 -109 -110 -111 0 -649 -651 -20 -291 -434 68 -578 -579 -218 -362 -363 -505 0 -17 20 -65 0 -18 20 -66 0 -19 20 -67 0 -18 -19 20 -65 -109 0 -19 20 -65 -109 -111 0 -17 20 -67 -109 -111 0 -17 -18 20 -67 -109 0 -18 20 -109 -110 0 -17 -18 -19 20 -110 0 -17 -19 20 -110 -111 0 0
DNF 14 -106 -107 -108 0 -14 -538 -540 -431 -180 62 -467 -468 -215 -502 -251 -252 0 -13 14 -61 0 14 -15 -63 0 14 -16 -64 0 14 -15 -61 -106 -108 0 14 -15 -16 -61 -106 0 -13 14 -16 -63 -106 0 -13 14 -63 -106 -108 0 14 -16 -106 -107 0 -13 14 -15 -16 -107 0 -13 14 -15 -107 -108 0 0
DNF 22 -112 -113 -114 0 -257 -258 -22 -544 -546 -437 -186 70 -473 -474 -221 -508 0 -21 22 -69 0 22 -23 -71 0 22 -24 -72 0 22 -23 -69 -112 -114 0 22 -23 -24 -69 -112 0 -21 22 -24 -71 -112 0 -21 22 -71 -112 -114 0 22 -24 -112 -113 0 -21 22 -23 -24 -113 0 -21 22 -23 -113 -114 0 0
DNF 24 -112 -113 -114 0 -652 -654 -24 -294 -437 72 -581 -582 -221 -365 -366 -508 0 -21 24 -69 0 -22 24 -70 0 -23 24 -71 0 -22 -23 24 -69 -112 0 -23 24 -69 -112 -114 0 -21 24 -71 -112 -114 0 -21 -22 24 -71 -112 0 -22 24 -112 -113 0 -21 -22 -23 24 -113 0 -21 -23 24 -113 -114 0 0
DNF 12 -103 -104 -105 0 -643 -645 -12 -285 -428 60 -572 -573 -212 -356 -357 -499 0 -9 12 -57 0 -10 12 -58 0 -11 12 -59 0 -10 -11 12 -57 -103 0 -11 12 -57 -103 -105 0 -9 12 -59 -103 -105 0 -9 -10 12 -59 -103 0 -10 12 -103 -104 0 -9 -10 -11 12 -104 0 -9 -11 12 -104 -105 0 0
DNF 26 -115 -116 -117 0 -260 -261 -26 -547 -549 -440 -189 74 -476 -477 -224 -511 0 -25 26 -73 0 26 -27 -75 0 26 -28 -76 0 26 -27 -73 -115 -117 0 26 -27 -28 -73 -115 0 -25 26 -28 -75 -115 0 -25 26 -75 -115 -117 0 26 -28 -115 -116 0 -25 26 -27 -28 -116 0 -25 26 -27 -116 -117 0 0
DNF 28 -115 -116 -117 0 -655 -657 -28 -297 -440 -584 76 -585 -224 -368 -369 -511 0 -25 28 -73 0 -26 28 -74 0 -27 28 -75 0 -26 -27 28 -73 -115 0 -27 28 -73 -115 -117 0 -25 28 -75 -115 -117 0 -25 -26 28 -75 -115 0 -26 28 -115 -116 0 -25 -26 -27 28 -116 0 -25 -27 28 -116 -117 0 0
DNF 10 -103 -104 -105 0 -10 -535 -537 -428 -177 58 -464 -465 -212 -499 -248 -249 0 -9 10 -57 0 10 -11 -59 0 10 -12 -60 0 10 -11 -57 -103 -105 0 10 -11 -12 -57 -103 0 -9 10 -12 -59 -103 0 -9 10 -59 -103 -105 0 10 -12 -103 -104 0 -9 10 -11 -12 -104 0 -9 10 -11 -104 -105 0 0
DNF 30 -118 -119 -120 0 -514 -263 -264 -30 -550 -552 -443 -192 78 -479 -480 -227 0 -29 30 -77 0 30 -31 -79 0 30 -32 -80 0 30 -31 -77 -118 -120 0 30 -31 -32 -77 -118 0 -29 30 -32 -79 -118 0 -29 30 -79 -118 -120 0 30 -32 -118 -119 0 -29 30 -31 -32 -119 0 -29 30 -31 -119 -120 0 0
DNF 32 -118 -119 -120 0 -514 -658 -660 -32 -300 -443 -587 -588 80 -227 -371 -372 0 -29 32 -77 0 -30 32 -78 0 -31 32 -79 0 -30 -31 32 -77 -118 0 -31 32 -77 -118 -120 0 -29 32 -79 -118 -120 0 -29 -30 32 -79 -118 0 -30 32 -118 -119 0 -29 -30 -31 32 -119 0 -29 -31 32 -119 -120 0 0
DNF 16 -106 -107 -108 0 -646 -648 -16 -288 -431 -575 64 -576 -215 -359 -360 -502 0 -13 16 -61 0 -14 16 -62 0 -15 16 -63 0 -14 -15 16 -61 -106 0 -15 16 -61 -106 -108 0 -13 16 -63 -106 -108 0 -13 -14 16 -63 -106 0 -14 16 -106 -107 0 -13 -14 -15 16 -107 0 -13 -15 16 -107 -108 0 0
DNF 8 -100 -101 -102 0 -640 -642 -8 -282 -425 56 -569 -570 -209 -353 -354 -496 0 -5 8 -53 0 -6 8 -54 0 -7 8 -55 0 -6 -7 8 -53 -100 0 -7 8 -53 -100 -102 0 -5 8 -55 -100 -102 0 -5 -6 8 -55 -100 0 -6 8 -100 -101 0 -5 -6 -7 8 -101 0 -5 -7 8 -101 -102 0 0
DNF -130 -131 -132 48 0 -384 -526 -670 -672 -48 -312 -455 -599 -600 96 -239 -383 0 -45 48 -93 0 -46 48 -94 0 -47 48 -95 0 -130 -46 -47 48 -93 0 -130 -132 -47 48 -93 0 -130 -132 -45 48 -95 0 -130 -45 -46 48 -95 0 -130 -131 -46 48 0 -131 -45 -46 -47 48 0 -131 -132 -45 -47 48 0 0
DNF -128 -129 44 -127 0 -523 -667 -669 -44 -309 -452 -596 -597 92 -236 -380 -381 0 -41 44 -89 0 -42 44 -90 0 -43 44 -91 0 -42 -43 44 -89 -127 0 -129 -43 44 -89 -127 0 -129 -41 44 -91 -127 0 -41 -42 44 -91 -127 0 -128 -42 44 -127 0 -128 -41 -42 -43 44 0 -128 -129 -41 -43 44 0 0
DNF 6 -100 -101 -102 0 -6 -532 -534 -425 -174 54 -461 -462 -209 -496 -245 -246 0 -5 6 -53 0 6 -7 -55 0 6 -8 -56 0 6 -7 -53 -100 -102 0 6 -7 -8 -53 -100 0 -5 6 -8 -55 -100 0 -5 6 -55 -100 -102 0 6 -8 -100 -101 0 -5 6 -7 -8 -101 0 -5 6 -7 -101 -102 0 0
DNF 38 -124 -125 -126 0 -520 -269 -270 -38 -556 -558 -449 -198 86 -485 -486 -233 0 -37 38 -85 0 38 -39 -87 0 38 -40 -88 0 38 -39 -85 -124 -126 0 38 -39 -40 -85 -124 0 -37 38 -40 -87 -124 0 -37 38 -87 -124 -126 0 38 -40 -124 -125 0 -37 38 -39 -40 -125 0 -37 38 -39 -125 -126 0 0
DNF -130 -131 -132 46 0 -526 -275 -276 -46 -562 -564 -455 -204 94 -491 -492 -239 0 -45 46 -93 0 46 -47 -95 0 46 -48 -96 0 -130 -132 46 -47 -93 0 -130 46 -47 -48 -93 0 -130 -45 46 -48 -95 0 -130 -132 -45 46 -95 0 -130 -131 46 -48 0 -131 -45 46 -47 -48 0 -131 -132 -45 46 -47 0 0
DNF 40 -124 -125 -126 0 -520 -664 -666 -40 -306 -449 -593 -594 88 -233 -377 -378 0 -37 40 -85 0 -38 40 -86 0 -39 40 -87 0 -38 -39 40 -85 -124 0 -39 40 -85 -124 -126 0 -37 40 -87 -124 -126 0 -37 -38 40 -87 -124 0 -38 40 -124 -125 0 -37 -38 -39 40 -125 0 -37 -39 40 -125 -126 0 0
DNF 4 -97 -98 -99 0 -4 -279 -422 52 -566 -567 -206 -350 -351 -493 -637 -639 0 -1 4 -49 0 -2 4 -50 0 -3 4 -51 0 -2 -3 4 -49 -97 0 -3 4 -49 -97 -99 0 -1 4 -51 -97 -99 0 -1 -2 4 -51 -97 0 -2 4 -97 -98 0 -1 -2 -3 4 -98 0 -1 -3 4 -98 -99 0 0
DNF 36 -121 -122 -123 0 -517 -661 -663 -36 -303 -446 -590 -591 84 -230 -374 -375 0 -33 36 -81 0 -34 36 -82 0 -35 36 -83 0 -34 -35 36 -81 -121 0 -35 36 -81 -121 -123 0 -33 36 -83 -121 -123 0 -33 -34 36 -83 -121 0 -34 36 -121 -122 0 -33 -34 -35 36 -122 0 -33 -35 36 -122 -123 0 0
DNF -128 -129 42 -127 0 -523 -272 -273 -42 -559 -561 -452 -201 90 -488 -489 -236 0 -41 42 -89 0 42 -43 -91 0 42 -44 -92 0 -129 42 -43 -89 -127 0 42 -43 -44 -89 -127 0 -41 42 -44 -91 -127 0 -129 -41 42 -91 -127 0 -128 42 -44 -127 0 -128 -41 42 -43 -44 0 -128 -129 -41 42 -43 0 0
DNF 2 -97 -98 -99 0 -2 -529 -531 -422 -171 50 -458 -459 -206 -493 -242 -243 0 -1 2 -49 0 2 -3 -51 0 2 -4 -52 0 2 -3 -49 -97 -99 0 2 -3 -4 -49 -97 0 -1 2 -4 -51 -97 0 -1 2 -51 -97 -99 0 2 -4 -97 -98 0 -1 2 -3 -4 -98 0 -1 2 -3 -98 -99 0 0
DNF 15 -106 -107 -108 0 -15 -288 -431 -180 -575 63 -576 -323 -467 -468 -610 0 -13 15 -61 0 -14 15 -62 0 15 -16 -64 0 -14 15 -64 -106 -107 0 -13 -14 15 -64 -106 0 -13 15 -16 -62 -106 0 15 -16 -62 -106 -107 0 -13 15 -62 -106 -108 0 -13 15 -64 -106 -108 0 -13 -14 15 -16 -107 -108 0 -14 15 -16 -61 -106 -108 0 0
DNF 1 -97 -98 -99 0 -1 -385 -279 -171 49 -314 -206 -350 -351 -242 -243 0 1 -2 -50 0 1 -3 -51 0 1 -4 -52 0 1 -3 -4 -50 -97 0 1 -4 -50 -97 -98 0 1 -2 -52 -97 -98 0 1 -2 -3 -52 -97 0 1 -3 -50 -97 -99 0 1 -3 -52 -97 -99 0 1 -2 -4 -51 -97 -99 0 1 -2 -3 -4 -98 -99 0 0
DNF 7 -100 -101 -102 0 -7 -282 -425 -174 55 -569 -570 -317 -461 -462 -604 0 -5 7 -53 0 -6 7 -54 0 7 -8 -56 0 -6 7 -56 -100 -101 0 -5 -6 7 -56 -100 0 -5 7 -8 -54 -100 0 7 -8 -54 -100 -101 0 -5 7 -54 -100 -102 0 -5 7 -56 -100 -102 0 -5 -6 7 -8 -101 -102 0 -6 7 -8 -53 -100 -102 0 0
DNF 13 -106 -107 -108 0 -394 -13 -288 -180 61 -323 -215 -359 -360 -251 -252 0 13 -14 -62 0 13 -15 -63 0 13 -16 -64 0 13 -15 -16 -62 -106 0 13 -16 -62 -106 -107 0 13 -14 -64 -106 -107 0 13 -14 -15 -64 -106 0 13 -15 -62 -106 -108 0 13 -15 -64 -106 -108 0 13 -14 -16 -63 -106 -108 0 13 -14 -15 -16 -107 -108 0 0
DNF 11 -103 -104 -105 0 -11 -285 -428 -177 59 -572 -573 -320 -464 -465 -607 0 -9 11 -57 0 -10 11 -58 0 11 -12 -60 0 -10 11 -60 -103 -104 0 -9 -10 11 -60 -103 0 -9 11 -12 -58 -103 0 11 -12 -58 -103 -104 0 -9 11 -58 -103 -105 0 -9 11 -60 -103 -105 0 -9 -10 11 -12 -104 -105 0 -10 11 -12 -57 -103 -105 0 0
DNF 5 -100 -101 -102 0 -388 -5 -282 -174 53 -317 -209 -353 -354 -245 -246 0 5 -6 -54 0 5 -7 -55 0 5 -8 -56 0 5 -7 -8 -54 -100 0 5 -8 -54 -100 -101 0 5 -6 -56 -100 -101 0 5 -6 -7 -56 -100 0 5 -7 -54 -100 -102 0 5 -7 -56 -100 -102 0 5 -6 -8 -55 -100 -102 0 5 -6 -7 -8 -101 -102 0 0
DNF 9 -103 -104 -105 0 -391 -9 -285 -177 57 -320 -212 -356 -357 -248 -249 0 9 -10 -58 0 9 -11 -59 0 9 -12 -60 0 9 -11 -12 -58 -103 0 9 -12 -58 -103 -104 0 9 -10 -60 -103 -104 0 9 -10 -11 -60 -103 0 9 -11 -58 -103 -105 0 9 -11 -60 -103 -105 0 9 -10 -12 -59 -103 -105 0 9 -10 -11 -12 -104 -105 0 0
DNF 3 -97 -98 -99 0 -3 -279 -422 -171 51 -566 -567 -314 -458 -459 -601 0 -1 3 -49 0 -2 3 -50 0 3 -4 -52 0 -2 3 -52 -97 -98 0 -1 -2 3 -52 -97 0 -1 3 -4 -50 -97 0 3 -4 -50 -97 -98 0 -1 3 -50 -97 -99 0 -1 3 -52 -97 -99 0 -1 -2 3 -4 -98 -99 0 -2 3 -4 -49 -97 -99 0 0
385 388 391 394 397 400 403 406 409 412 415 418 0
493 496 499 502 505 508 511 514 517 520 523 526 0
529 532 535 538 541 544 547 550 553 556 559 562 0
601 604 607 610 613 616 619 622 625 628 631 634 0
637 640 643 646 649 652 655 658 661 664 667 670 0
673 676 679 682 685 688 691 694 697 700 703 706 0
206 209 212 215 218 221 224 227 230 233 236 239 0
242 245 248 251 254 257 260 263 266 269 272 275 0
314 317 320 323 326 329 332 335 338 341 344 347 0
350 353 356 359 362 365 368 371 374 377 380 383 0
422 425 428 431 434 437 440 443 446 449 452 455 0
458 461 464 467 470 473 476 479 482 485 488 491 0
566 569 572 575 578 581 584 587 590 593 596 599 0
674 677 680 683 686 689 692 695 698 701 704 707 0
171 174 177 180 183 186 189 192 195 198 201 204 0
243 246 249 252 255 258 261 264 267 270 273 276 0
279 282 285 288 291 294 297 300 303 306 309 312 0
351 354 357 360 363 366 369 372 375 378 381 384 0
459 462 465 468 471 474 477 480 483 486 489 492 0
531 534 537 540 543 546 549 552 555 558 561 564 0
567 570 573 576 579 582 585 588 591 594 597 600 0
639 642 645 648 651 654 657 660 663 666 669 672 0
-385 97 0
-388 100 0
-391 103 0
-394 106 0
-397 109 0
-400 112 0
-403 115 0
-406 118 0
-409 121 0
-412 124 0
-415 127 0
-418 130 0
-493 97 0
-496 100 0
-499 103 0
-502 106 0
-505 109 0
-508 112 0
-511 115 0
-514 118 0
-517 121 0
-520 124 0
-523 127 0
-526 130 0
-529 97 0
-532 100 0
-535 103 0
-538 106 0
-541 109 0
-544 112 0
-547 115 0
-550 118 0
-553 121 0
-556 124 0
-559 127 0
-562 130 0
-601 97 0
-604 100 0
-607 103 0
-610 106 0
-613 109 0
-616 112 0
-619 115 0
-622 118 0
-625 121 0
-628 124 0
-631 127 0
-634 130 0
-637 97 0
-640 100 0
-643 103 0
-646 106 0
-649 109 0
-652 112 0
-655 115 0
-658 118 0
-661 121 0
-664 124 0
-667 127 0
-670 130 0
-673 97 0
-676 100 0
-679 103 0
-682 106 0
-685 109 0
-688 112 0
-691 115 0
-694 118 0
-697 121 0
-700 124 0
-703 127 0
-706 130 0
-206 98 0
-209 101 0
-212 104 0
-215 107 0
-218 110 0
-221 113 0
-224 116 0
-227 119 0
-230 122 0
-233 125 0
-236 128 0
-239 131 0
-242 98 0
-245 101 0
-248 104 0
-251 107 0
-254 110 0
-257 113 0
-260 116 0
-263 119 0
-266 122 0
-269 125 0
-272 128 0
-275 131 0
-314 98 0
-317 101 0
-320 104 0
-323 107 0
-326 110 0
-329 113 0
-332 116 0
-335 119 0
-338 122 0
-341 125 0
-344 128 0
-347 131 0
-350 98 0
-353 101 0
-356 104 0
-359 107 0
-362 110 0
-365 113 0
-368 116 0
-371 119 0
-374 122 0
-377 125 0
-380 128 0
-383 131 0
-422 98 0
-425 101 0
-428 104 0
-431 107 0
-434 110 0
-437 113 0
-440 116 0
-443 119 0
-446 122 0
-449 125 0
-452 128 0
-455 131 0
-458 98 0
-461 101 0
-464 104 0
-467 107 0
-470 110 0
-473 113 0
-476 116 0
-479 119 0
-482 122 0
-485 125 0
-488 128 0
-491 131 0
-566 98 0
-569 101 0
-572 104 0
-575 107 0
-578 110 0
-581 113 0
-584 116 0
-587 119 0
-590 122 0
-593 125 0
-596 128 0
-599 131 0
-674 98 0
-677 101 0
-680 104 0
-683 107 0
-686 110 0
-689 113 0
-692 116 0
-695 119 0
-698 122 0
-701 125 0
-704 128 0
-707 131 0
-171 99 0
-174 102 0
-177 105 0
-180 108 0
-183 111 0
-186 114 0
-189 117 0
-192 120 0
-195 123 0
-198 126 0
-201 129 0
-204 132 0
-243 99 0
-246 102 0
-249 105 0
-252 108 0
-255 111 0
-258 114 0
-261 117 0
-264 120 0
-267 123 0
-270 126 0
-273 129 0
-276 132 0
-279 99 0
-282 102 0
-285 105 0
-288 108 0
-291 111 0
-294 114 0
-297 117 0
-300 120 0
-303 123 0
-306 126 0
-309 129 0
-312 132 0
-351 99 0
-354 102 0
-357 105 0
-360 108 0
-363 111 0
-366 114 0
-369 117 0
-372 120 0
-375 123 0
-378 126 0
-381 129 0
-384 132 0
-459 99 0
-462 102 0
-465 105 0
-468 108 0
-471 111 0
-474 114 0
-477 117 0
-480 120 0
-483 123 0
-486 126 0
-489 129 0
-492 132 0
-531 99 0
-534 102 0
-537 105 0
-540 108 0
-543 111 0
-546 114 0
-549 117 0
-552 120 0
-555 123 0
-558 126 0
-561 129 0
-564 132 0
-567 99 0
-570 102 0
-573 105 0
-576 108 0
-579 111 0
-582 114 0
-585 117 0
-588 120 0
-591 123 0
-594 126 0
-597 129 0
-600 132 0
-639 99 0
-642 102 0
-645 105 0
-648 108 0
-651 111 0
-654 114 0
-657 117 0
-660 120 0
-663 123 0
-666 126 0
-669 129 0
-672 132 0
-397 17 0
-400 21 0
-403 25 0
-406 29 0
-409 33 0
-412 37 0
-415 41 0
-418 45 0
-613 19 0
-616 23 0
-619 27 0
-622 31 0
-625 35 0
-628 39 0
-631 43 0
-634 47 0
-218 17 0
-221 21 0
-224 25 0
-227 29 0
-230 33 0
-233 37 0
-236 41 0
-239 45 0
-254 17 0
-257 21 0
-260 25 0
-263 29 0
-266 33 0
-269 37 0
-272 41 0
-275 45 0
-326 17 0
-329 21 0
-332 25 0
-335 29 0
-338 33 0
-341 37 0
-344 41 0
-347 45 0
-326 19 0
-329 23 0
-332 27 0
-335 31 0
-338 35 0
-341 39 0
-344 43 0
-347 47 0
-362 17 0
-365 21 0
-368 25 0
-371 29 0
-374 33 0
-377 37 0
-380 41 0
-383 45 0
-434 19 0
-437 23 0
-440 27 0
-443 31 0
-446 35 0
-449 39 0
-452 43 0
-455 47 0
-470 19 0
-473 23 0
-476 27 0
-479 31 0
-482 35 0
-485 39 0
-488 43 0
-491 47 0
-578 19 0
-581 23 0
-584 27 0
-587 31 0
-590 35 0
-593 39 0
-596 43 0
-599 47 0
-183 17 0
-186 21 0
-189 25 0
-192 29 0
-195 33 0
-198 37 0
-201 41 0
-204 45 0
-183 19 0
-186 23 0
-189 27 0
-192 31 0
-195 35 0
-198 39 0
-201 43 0
-204 47 0
-255 17 0
-258 21 0
-261 25 0
-264 29 0
-267 33 0
-270 37 0
-273 41 0
-276 45 0
-291 17 0
-294 21 0
-297 25 0
-300 29 0
-303 33 0
-306 37 0
-309 41 0
-312 45 0
-291 19 0
-294 23 0
-297 27 0
-300 31 0
-303 35 0
-306 39 0
-309 43 0
-312 47 0
-363 17 0
-366 21 0
-369 25 0
-372 29 0
-375 33 0
-378 37 0
-381 41 0
-384 45 0
-471 19 0
-474 23 0
-477 27 0
-480 31 0
-483 35 0
-486 39 0
-489 43 0
-492 47 0
-579 19 0
-582 23 0
-585 27 0
-588 31 0
-591 35 0
-594 39 0
-597 43 0
-600 47 0
